Rodando pra 1h

Optimize a model with 64 rows, 60 columns and 499 nonzeros
Coefficient statistics:
  Matrix range    [1e+00, 1e+04]
  Objective range [2e-01, 8e-01]
  Bounds range    [1e+00, 1e+04]
  RHS range       [1e+00, 1e+04]
Found heuristic solution: objective 152
Presolve removed 18 rows and 3 columns
Presolve time: 0.00s
Presolved: 46 rows, 57 columns, 261 nonzeros
Variable types: 20 continuous, 37 integer (35 binary)

Root relaxation: objective 1.405797e+01, 40 iterations, 0.00 seconds

    Nodes    |    Current Node    |     Objective Bounds      |     Work
 Expl Unexpl |  Obj  Depth IntInf | Incumbent    BestBd   Gap | It/Node Time

     0     0   14.05797    0   10  152.00000   14.05797  90.8%     -    0s
H    0     0                     144.2000000   14.05797  90.3%     -    0s
     0     0   20.53247    0   12  144.20000   20.53247  85.8%     -    0s
     0     0   21.07547    0   14  144.20000   21.07547  85.4%     -    0s
     0     0   23.09450    0   17  144.20000   23.09450  84.0%     -    0s
     0     0   25.58659    0   15  144.20000   25.58659  82.3%     -    0s
     0     0   25.73309    0   15  144.20000   25.73309  82.2%     -    0s
H    0     0                     139.4000000   25.73309  81.5%     -    0s
     0     0   25.75888    0   15  139.40000   25.75888  81.5%     -    0s
     0     0   26.08957    0   16  139.40000   26.08957  81.3%     -    0s
     0     0   26.08957    0   16  139.40000   26.08957  81.3%     -    0s
     0     0   26.55734    0   15  139.40000   26.55734  80.9%     -    0s
     0     0   26.61246    0   16  139.40000   26.61246  80.9%     -    0s
     0     0   26.74611    0   16  139.40000   26.74611  80.8%     -    0s
     0     0   26.74611    0   14  139.40000   26.74611  80.8%     -    0s
     0     2   26.92215    0   14  139.40000   26.92215  80.7%     -    0s
*   10     7               9     138.4000000   26.92215  80.5%   6.1    0s
*   14     6              11     138.2000000   26.92215  80.5%   4.9    0s
*   38    18               7     134.4000000   31.62880  76.5%   5.2    0s
*   39    17               6     108.6000000   31.62880  70.9%   5.2    0s

Cutting planes:
  Cover: 9
  MIR: 28
  Flow cover: 21
  Flow path: 1
  Zero half: 4
  Network: 3

Explored 176 nodes (824 simplex iterations) in 0.04 seconds
Thread count was 1 (of 4 available processors)

Optimal solution found (tolerance 1.00e-04)
Best objective 1.086000000000e+02, best bound 1.086000000000e+02, gap 0.0%
Tempo: 0.04 segundos

0 3 40 80 44 26 84 
1 3 10 36 39 58 16 
2 3 35 36 45 37 37 
2 4 0 3 71 24 66 
(85 155 199 145 203 )

